N = 14;
K = 2;
Distance=[|0,42,46,60,62,84,160,34,43,74,144,35,88,100,183
|42,0,41,32,98,120,142,9,63,75,119,15,85,82,151
|46,41,0,73,108,129,183,41,87,110,161,50,122,123,191
|60,32,73,0,100,120,110,34,57,53,89,26,59,51,123
|62,98,108,100,0,22,163,89,44,73,159,85,86,114,204
|84,120,129,120,22,0,174,111,64,88,173,107,99,129,219
|160,142,183,110,163,174,0,143,128,92,31,134,78,61,62
|34,9,41,34,89,111,143,0,55,71,122,10,82,82,156
|43,63,87,57,44,64,128,55,0,36,119,48,50,73,163
|74,75,110,53,73,88,92,71,36,0,86,61,15,41,131
|144,119,161,89,159,173,31,122,119,86,0,114,74,46,46
|35,15,50,26,85,107,134,10,48,61,114,0,72,73,150
|88,85,122,59,86,99,78,82,50,15,74,72,0,33,120
|100,82,123,51,114,129,61,82,73,41,46,73,33,0,90
|183,151,191,123,204,219,62,156,163,131,46,150,120,90,0|];